sat
(:max-memory          18.21
 :memory              18.00
 :nlsat-conflicts     1
 :nlsat-decisions     1
 :nlsat-learned-added 1
 :nlsat-propagations  13
 :nlsat-stages        5
 :num-allocs          9570
 :rlimit-count        11188
 :time                0.01
 :total-time          0.02)
